
n_res = 6;
rcap = [45, 43, 564, 594, 599, 582];
rtype = [1, 1, 2, 2, 2, 2];
n_tasks = 50;
modes =  [{1, 2, 3, 4, 5, 6}, {7, 8, 9, 10, 11, 12}, {13, 14, 15, 16, 17, 18}, {19, 20, 21, 22, 23, 24}, {25, 26, 27, 28, 29, 30}, {31, 32, 33, 34, 35, 36}, {37, 38, 39, 40, 41, 42}, {43, 44, 45, 46, 47, 48}, {49, 50, 51, 52, 53, 54}, {55, 56, 57, 58, 59, 60}, {61, 62, 63, 64, 65, 66}, {67, 68, 69, 70, 71, 72}, {73, 74, 75, 76, 77, 78}, {79, 80, 81, 82, 83, 84}, {85, 86, 87, 88, 89, 90}, {91, 92, 93, 94, 95, 96}, {97, 98, 99, 100, 101, 102}, {103, 104, 105, 106, 107, 108}, {109, 110, 111, 112, 113, 114}, {115, 116, 117, 118, 119, 120}, {121, 122, 123, 124, 125, 126}, {127, 128, 129, 130, 131, 132}, {133, 134, 135, 136, 137, 138}, {139, 140, 141, 142, 143, 144}, {145, 146, 147, 148, 149, 150}, {151, 152, 153, 154, 155, 156}, {157, 158, 159, 160, 161, 162}, {163, 164, 165, 166, 167, 168}, {169, 170, 171, 172, 173, 174}, {175, 176, 177, 178, 179, 180}, {181, 182, 183, 184, 185, 186}, {187, 188, 189, 190, 191, 192}, {193, 194, 195, 196, 197, 198}, {199, 200, 201, 202, 203, 204}, {205, 206, 207, 208, 209, 210}, {211, 212, 213, 214, 215, 216}, {217, 218, 219, 220, 221, 222}, {223, 224, 225, 226, 227, 228}, {229, 230, 231, 232, 233, 234}, {235, 236, 237, 238, 239, 240}, {241, 242, 243, 244, 245, 246}, {247, 248, 249, 250, 251, 252}, {253, 254, 255, 256, 257, 258}, {259, 260, 261, 262, 263, 264}, {265, 266, 267, 268, 269, 270}, {271, 272, 273, 274, 275, 276}, {277, 278, 279, 280, 281, 282}, {283, 284, 285, 286, 287, 288}, {289, 290, 291, 292, 293, 294}, {295, 296, 297, 298, 299, 300}];
succ =  [{12, 6, 3}, {13, 12, 6}, {18, 14, 13, 11, 10}, {18, 16, 14, 11, 10}, {18, 17, 13, 12, 11}, {11, 7}, {18, 17, 16, 15}, {17, 12, 11}, {18, 12}, {17, 15}, {20, 15}, {20, 15}, {24, 22, 21, 20, 19}, {22, 19, 17}, {24, 22, 21, 19}, {24, 21, 20, 19}, {26, 24, 23, 20}, {23, 22, 20}, {34, 31, 30, 28, 26, 25}, {34, 30, 29, 28, 27, 25}, {34, 27, 26, 23}, {34, 29, 27, 25}, {43, 42, 38, 31, 29}, {42, 41, 35, 34, 30}, {45, 44, 43, 42, 41, 38, 37, 36, 35}, {42, 35, 29}, {43, 42, 41, 39, 32}, {45, 44, 43, 42, 40, 38, 36}, {44, 41, 37, 36, 33}, {43, 39, 32}, {41, 39, 32}, {45, 44, 40, 36}, {50, 45, 39}, {50, 48, 46, 44}, {50, 39}, {50, 49, 48, 46}, {50, 49, 48, 46}, {39}, {49, 48, 46}, {50, 48, 46}, {48, 46}, {48, 46}, {48, 46}, {49, 47}, {48, 47}, {47}, {}, {}, {}, {}];
n_opt = 300;
dur = [1, 2, 7, 11, 14, 16, 3, 7, 8, 9, 10, 15, 1, 4, 8, 9, 15, 20, 9, 14, 15, 16, 17, 18, 2, 4, 11, 12, 14, 18, 5, 6, 8, 10, 16, 18, 2, 5, 6, 7, 8, 16, 2, 4, 6, 7, 9, 10, 1, 3, 6, 11, 17, 18, 3, 4, 7, 15, 16, 20, 1, 2, 5, 11, 17, 19, 7, 13, 16, 17, 18, 19, 1, 8, 9, 10, 15, 17, 4, 8, 12, 14, 15, 18, 1, 3, 5, 6, 9, 17, 8, 9, 11, 12, 13, 15, 1, 4, 11, 12, 13, 17, 1, 4, 6, 15, 17, 18, 4, 8, 13, 15, 16, 18, 1, 6, 7, 8, 10, 19, 2, 11, 13, 16, 17, 19, 1, 3, 8, 13, 15, 20, 3, 4, 8, 10, 15, 17, 2, 10, 13, 14, 16, 19, 4, 6, 9, 10, 11, 15, 8, 9, 16, 17, 18, 19, 1, 2, 5, 11, 14, 19, 11, 12, 13, 15, 18, 19, 2, 4, 5, 6, 11, 14, 8, 11, 12, 16, 17, 18, 3, 5, 7, 10, 15, 20, 2, 8, 12, 15, 16, 17, 2, 5, 6, 8, 9, 12, 2, 6, 9, 12, 13, 14, 4, 5, 6, 8, 10, 11, 4, 5, 7, 13, 14, 18, 3, 12, 13, 14, 16, 17, 10, 11, 13, 14, 15, 20, 1, 2, 3, 6, 8, 15, 4, 5, 7, 9, 14, 15, 1, 7, 10, 14, 18, 19, 6, 7, 8, 10, 18, 19, 6, 12, 13, 14, 15, 19, 3, 7, 12, 13, 14, 17, 6, 8, 9, 13, 18, 20, 3, 4, 6, 10, 15, 16, 2, 4, 5, 6, 14, 16, 5, 6, 13, 16, 18, 19, 2, 10, 11, 12, 13, 14, 2, 8, 10, 11, 17, 18];
rreq = [|19, 19, 18, 18, 17, 17, 8, 8, 7, 5, 5, 4, 16, 15, 14, 14, 12, 12, 20, 18, 17, 17, 15, 15, 17, 17, 15, 11, 9, 7, 3, 2, 2, 1, 1, 1, 14, 12, 12, 11, 10, 10, 16, 15, 15, 14, 14, 13, 16, 14, 14, 12, 11, 10, 20, 18, 18, 17, 16, 16, 2, 2, 2, 2, 2, 2, 13, 12, 12, 10, 10, 9, 15, 13, 11, 9, 9, 7, 15, 13, 12, 11, 10, 10, 11, 11, 8, 7, 4, 4, 15, 15, 15, 14, 14, 13, 19, 16, 11, 9, 5, 3, 10, 7, 7, 4, 4, 2, 14, 13, 13, 12, 12, 11, 9, 8, 7, 7, 5, 5, 13, 11, 9, 9, 5, 4, 3, 3, 3, 3, 3, 3, 20, 17, 17, 15, 14, 14, 16, 13, 12, 11, 10, 8, 12, 11, 11, 11, 11, 11, 15, 13, 12, 11, 9, 9, 13, 13, 13, 12, 12, 11, 19, 14, 11, 9, 4, 2, 18, 16, 13, 13, 10, 8, 13, 11, 11, 10, 9, 9, 18, 17, 15, 14, 11, 9, 15, 15, 14, 12, 12, 11, 15, 11, 9, 9, 7, 5, 11, 10, 9, 8, 7, 6, 17, 13, 12, 11, 9, 8, 16, 14, 11, 10, 7, 5, 15, 12, 11, 11, 8, 8, 14, 11, 9, 8, 4, 1, 20, 20, 20, 20, 20, 20, 12, 10, 8, 7, 6, 5, 6, 6, 6, 6, 6, 6, 18, 16, 16, 14, 14, 13, 1, 1, 1, 1, 1, 1, 15, 14, 13, 12, 12, 11, 16, 15, 15, 14, 14, 14, 12, 12, 10, 7, 7, 5, 16, 14, 14, 12, 11, 10, 4, 4, 3, 3, 1, 1, 18, 16, 13, 11, 10, 8, 7, 6, 6, 6, 5, 5
 |16, 14, 13, 12, 12, 10, 15, 15, 15, 15, 15, 15, 18, 15, 12, 11, 6, 5, 4, 4, 3, 3, 2, 2, 12, 12, 10, 9, 8, 8, 10, 8, 8, 6, 5, 5, 14, 14, 13, 13, 12, 12, 17, 17, 16, 16, 16, 15, 14, 14, 14, 14, 14, 14, 8, 7, 7, 5, 4, 4, 7, 6, 4, 4, 3, 1, 20, 18, 17, 14, 14, 12, 13, 11, 10, 8, 6, 6, 12, 11, 10, 5, 4, 3, 19, 17, 16, 15, 13, 13, 12, 11, 11, 8, 7, 5, 17, 17, 17, 16, 16, 15, 6, 5, 4, 4, 2, 2, 17, 16, 16, 15, 14, 14, 18, 18, 16, 15, 15, 14, 13, 12, 9, 9, 7, 6, 16, 15, 15, 14, 12, 12, 7, 7, 5, 5, 2, 2, 17, 12, 10, 8, 3, 1, 16, 13, 13, 9, 7, 6, 17, 16, 14, 13, 10, 10, 18, 17, 16, 14, 13, 13, 8, 8, 6, 5, 5, 4, 14, 14, 12, 12, 10, 9, 17, 16, 14, 11, 10, 8, 15, 15, 15, 14, 14, 14, 9, 6, 5, 4, 2, 2, 5, 4, 4, 3, 3, 2, 17, 15, 15, 13, 12, 10, 18, 17, 16, 16, 14, 13, 11, 10, 8, 8, 4, 3, 15, 14, 12, 10, 8, 5, 6, 6, 6, 5, 5, 4, 16, 14, 13, 8, 5, 4, 15, 14, 12, 11, 10, 10, 13, 12, 12, 10, 10, 9, 11, 11, 11, 11, 11, 11, 17, 16, 15, 14, 12, 12, 15, 13, 11, 10, 8, 8, 10, 10, 10, 10, 10, 10, 17, 15, 14, 10, 8, 7, 13, 9, 9, 6, 4, 3, 13, 11, 9, 9, 6, 6, 9, 9, 9, 8, 8, 8, 14, 14, 14, 14, 14, 14
 |12, 11, 10, 9, 8, 7, 17, 14, 10, 7, 7, 4, 11, 10, 10, 10, 10, 10, 7, 5, 5, 4, 3, 3, 20, 14, 14, 11, 5, 4, 15, 14, 12, 11, 9, 6, 10, 9, 9, 9, 9, 9, 8, 7, 6, 5, 3, 2, 6, 6, 5, 4, 2, 1, 19, 18, 17, 16, 15, 14, 16, 14, 13, 12, 8, 7, 5, 4, 3, 2, 1, 1, 10, 8, 6, 5, 3, 1, 13, 13, 12, 10, 10, 9, 18, 16, 16, 16, 15, 14, 10, 9, 8, 6, 4, 3, 12, 11, 9, 9, 8, 6, 14, 12, 10, 10, 8, 7, 17, 16, 14, 11, 10, 7, 18, 17, 17, 17, 17, 17, 16, 15, 14, 13, 13, 12, 18, 15, 11, 10, 6, 3, 10, 7, 7, 6, 5, 4, 1, 1, 1, 1, 1, 1, 13, 11, 11, 7, 5, 5, 17, 16, 15, 14, 12, 10, 16, 14, 14, 9, 7, 5, 10, 8, 7, 6, 5, 5, 14, 14, 12, 11, 10, 10, 14, 14, 13, 12, 11, 11, 15, 13, 9, 8, 6, 1, 11, 9, 8, 6, 4, 4, 16, 14, 10, 9, 4, 3, 8, 8, 8, 7, 6, 6, 16, 13, 12, 10, 8, 7, 6, 6, 6, 6, 6, 6, 2, 2, 2, 2, 2, 2, 18, 18, 16, 15, 14, 14, 13, 13, 13, 12, 12, 11, 5, 4, 4, 3, 3, 3, 15, 12, 12, 11, 10, 8, 13, 12, 11, 10, 10, 9, 19, 19, 19, 19, 19, 19, 18, 18, 18, 17, 17, 16, 8, 8, 6, 6, 5, 3, 20, 18, 17, 15, 13, 11, 10, 10, 8, 6, 6, 5, 14, 14, 13, 12, 11, 11, 16, 15, 13, 9, 9, 7, 6, 6, 6, 6, 6, 6
 |12, 11, 11, 11, 10, 10, 18, 16, 12, 9, 8, 5, 4, 3, 3, 3, 3, 3, 20, 17, 14, 14, 12, 10, 15, 12, 9, 9, 5, 3, 18, 16, 14, 12, 12, 10, 14, 14, 13, 12, 11, 10, 10, 8, 7, 5, 4, 3, 12, 10, 8, 7, 6, 4, 15, 14, 12, 9, 7, 6, 4, 3, 2, 2, 1, 1, 15, 15, 13, 12, 10, 10, 11, 11, 11, 10, 10, 9, 5, 4, 4, 4, 4, 4, 17, 15, 13, 10, 9, 7, 11, 8, 8, 7, 6, 5, 15, 15, 15, 15, 15, 15, 17, 16, 16, 15, 15, 15, 6, 6, 5, 5, 4, 4, 10, 9, 9, 9, 9, 9, 16, 15, 14, 12, 12, 11, 19, 19, 19, 19, 18, 18, 14, 14, 13, 10, 9, 9, 11, 10, 9, 9, 7, 6, 14, 12, 12, 11, 11, 10, 20, 16, 12, 9, 6, 4, 19, 17, 17, 15, 14, 14, 8, 8, 8, 8, 8, 8, 10, 9, 8, 7, 6, 6, 10, 10, 9, 7, 6, 4, 10, 10, 10, 10, 10, 10, 6, 6, 5, 4, 2, 2, 15, 13, 11, 9, 6, 6, 19, 15, 14, 13, 12, 10, 10, 9, 9, 9, 8, 8, 16, 15, 11, 8, 3, 1, 16, 12, 12, 10, 8, 6, 6, 5, 5, 4, 4, 3, 18, 18, 18, 18, 18, 18, 18, 16, 15, 15, 13, 13, 5, 4, 4, 4, 4, 4, 10, 8, 8, 6, 5, 5, 17, 15, 13, 13, 10, 9, 19, 18, 17, 16, 15, 15, 11, 11, 9, 7, 6, 5, 17, 16, 14, 11, 8, 7, 7, 7, 7, 7, 6, 6, 17, 17, 17, 17, 16, 16, 16, 16, 15, 13, 13, 11, 18, 17, 14, 11, 11, 7
 |19, 16, 16, 13, 10, 9, 16, 14, 12, 10, 7, 6, 15, 14, 12, 12, 11, 9, 14, 13, 11, 11, 10, 9, 11, 10, 9, 8, 7, 6, 8, 6, 6, 5, 4, 4, 7, 6, 6, 6, 5, 5, 20, 19, 18, 18, 18, 17, 11, 10, 8, 8, 7, 4, 18, 14, 14, 11, 6, 5, 20, 14, 12, 12, 9, 5, 20, 19, 17, 17, 16, 15, 13, 10, 8, 8, 5, 3, 18, 15, 13, 12, 11, 8, 7, 7, 5, 5, 3, 3, 11, 11, 9, 9, 8, 7, 10, 10, 9, 9, 9, 8, 14, 12, 8, 6, 6, 2, 16, 15, 15, 15, 15, 15, 12, 9, 7, 7, 6, 4, 9, 8, 8, 7, 7, 6, 16, 16, 13, 11, 8, 6, 19, 16, 12, 9, 5, 4, 17, 16, 16, 15, 15, 15, 15, 15, 14, 11, 11, 9, 13, 13, 13, 13, 13, 13, 12, 12, 12, 12, 12, 12, 19, 17, 17, 16, 14, 14, 6, 5, 5, 4, 3, 3, 11, 9, 7, 4, 3, 1, 16, 14, 11, 10, 6, 6, 13, 12, 12, 9, 7, 7, 12, 10, 8, 7, 4, 4, 11, 11, 10, 9, 7, 7, 8, 6, 5, 5, 4, 2, 15, 14, 13, 12, 11, 11, 12, 11, 11, 11, 11, 11, 15, 14, 11, 10, 8, 7, 9, 6, 6, 3, 3, 1, 18, 14, 13, 8, 7, 4, 9, 9, 9, 8, 7, 7, 19, 17, 14, 13, 12, 8, 14, 14, 14, 14, 14, 14, 7, 7, 7, 7, 6, 6, 15, 12, 11, 9, 8, 5, 17, 15, 14, 13, 13, 12, 14, 13, 13, 13, 13, 13, 8, 7, 7, 6, 6, 5, 15, 15, 15, 15, 15, 15, 10, 8, 7, 7, 5, 4
 |6, 6, 6, 6, 6, 6, 15, 12, 12, 9, 9, 6, 12, 11, 9, 8, 6, 4, 17, 14, 13, 11, 9, 7, 15, 15, 15, 15, 15, 15, 3, 2, 2, 2, 2, 2, 18, 14, 12, 6, 6, 3, 10, 8, 7, 7, 6, 5, 16, 12, 10, 8, 7, 5, 17, 15, 12, 12, 10, 9, 16, 15, 14, 12, 11, 11, 8, 8, 8, 8, 7, 7, 12, 11, 11, 10, 10, 10, 15, 11, 10, 10, 8, 6, 17, 16, 13, 11, 11, 8, 17, 17, 16, 16, 16, 15, 10, 10, 10, 10, 10, 10, 15, 14, 11, 8, 6, 2, 11, 9, 8, 7, 6, 4, 15, 15, 15, 15, 15, 15, 14, 11, 9, 7, 6, 5, 13, 11, 10, 7, 7, 4, 20, 19, 19, 18, 18, 18, 11, 9, 9, 6, 6, 5, 12, 11, 10, 9, 9, 8, 7, 7, 6, 6, 5, 5, 13, 11, 7, 7, 3, 2, 15, 15, 14, 14, 13, 13, 12, 10, 10, 8, 7, 4, 7, 6, 5, 3, 3, 2, 16, 16, 13, 7, 6, 2, 9, 8, 8, 8, 8, 8, 16, 14, 13, 13, 11, 11, 18, 16, 13, 11, 9, 8, 20, 17, 14, 12, 9, 8, 16, 16, 15, 13, 12, 10, 17, 16, 15, 14, 13, 13, 7, 5, 5, 3, 3, 1, 11, 10, 8, 6, 5, 3, 8, 6, 5, 5, 4, 2, 12, 12, 11, 12, 12, 12, 17, 14, 13, 11, 10, 6, 14, 14, 14, 13, 13, 13, 12, 10, 9, 8, 4, 3, 17, 17, 17, 17, 17, 17, 18, 13, 11, 10, 5, 5, 14, 12, 11, 9, 8, 8, 5, 5, 4, 3, 2, 2, 7, 7, 7, 7, 7, 7, 13, 10, 9, 8, 5, 5|];